25	31	74	95	15	66	13	14	81	22	7	36	48	68	29	91	26	45	26	61
73	58	31	24	99	16	86	38	10	84	40	57	46	46	15	73	96	64	50	9
98	23	49	50	61	13	90	96	73	93	61	98	25	16	15	73	91	63	93	8
39	37	75	25	6	64	69	9	56	23	81	21	28	66	45	40	98	75	68	15
94	87	3	4	98	91	54	38	36	36	88	97	93	8	91	89	34	38	65	80
